(set-logic ALL)
(declare-fun var0 () String)
(assert (str.in_re var0 (re.++ (re.* (re.* (str.to_re "000"))) (re.++ (re.* (re.+ (str.to_re "11"))) (re.++ (re.+ (re.+ (str.to_re "222"))) (re.++ (re.+ (re.+ (str.to_re "333"))) (re.++ (re.+ (re.+ (str.to_re "444"))) (re.++ (re.* (re.+ (str.to_re "55"))) (re.++ (re.* (re.* (str.to_re "6"))) (re.++ (re.+ (re.* (str.to_re "77"))) (re.++ (re.* (re.union (str.to_re "88") (str.to_re "99"))) (re.++ (re.+ (re.* (str.to_re "aaa"))) (re.++ (re.+ (re.union (str.to_re "b") (str.to_re "cc"))) (re.++ (re.* (re.union (str.to_re "d") (str.to_re "eee"))) (re.++ (re.+ (re.+ (str.to_re "f"))) (re.++ (re.+ (re.+ (str.to_re "gg"))) (re.++ (re.+ (re.union (str.to_re "h") (str.to_re "iii"))) (re.++ (re.* (re.+ (str.to_re "j"))) (re.++ (re.+ (re.union (str.to_re "kk") (str.to_re "ll"))) (re.++ (re.* (re.* (str.to_re "mm"))) (re.++ (re.union (re.union (str.to_re "nnn") (str.to_re "ooo")) (re.union (str.to_re "ppp") (str.to_re "qqq"))) (re.++ (re.union (re.* (str.to_re "rrr")) (re.* (str.to_re "sss"))) (re.++ (re.+ (re.+ (str.to_re "t"))) (re.++ (re.union (re.union (str.to_re "uuu") (str.to_re "vvv")) (re.union (str.to_re "ww") (str.to_re "xx"))) (re.++ (re.* (re.* (str.to_re "yy"))) (re.++ (re.union (re.union (str.to_re "zz") (str.to_re "AA")) (re.union (str.to_re "BB") (str.to_re "CC"))) (re.++ (re.union (re.union (str.to_re "D") (str.to_re "E")) (re.union (str.to_re "FFF") (str.to_re "G"))) (re.++ (re.+ (re.* (str.to_re "HH"))) (re.++ (re.* (re.union (str.to_re "I") (str.to_re "J"))) (re.++ (re.+ (re.* (str.to_re "KK"))) (re.++ (re.* (re.+ (str.to_re "LLL"))) (re.++ (re.+ (re.+ (str.to_re "M"))) (re.++ (re.* (re.union (str.to_re "NN") (str.to_re "OO"))) (re.++ (re.* (re.* (str.to_re "P"))) (re.++ (re.* (re.* (str.to_re "QQ"))) (re.++ (re.union (re.union (str.to_re "RR") (str.to_re "SS")) (re.union (str.to_re "T") (str.to_re "U"))) (re.++ (re.+ (re.+ (str.to_re "VVV"))) (re.++ (re.* (re.* (str.to_re "WW"))) (re.++ (re.+ (re.union (str.to_re "X") (str.to_re "Y"))) (re.++ (re.+ (re.union (str.to_re "ZZZ") (str.to_re "!!!"))) (re.++ (re.+ (re.* (str.to_re """"""""))) (re.++ (re.union (re.union (str.to_re "#") (str.to_re "$")) (re.union (str.to_re "%%") (str.to_re "&&"))) (re.++ (re.+ (re.* (str.to_re "''"))) (re.++ (re.union (re.+ (str.to_re "(")) (re.+ (str.to_re ")))"))) (re.++ (re.union (re.* (str.to_re "***")) (re.* (str.to_re "++"))) (re.++ (re.+ (re.union (str.to_re ",,,") (str.to_re "--"))) (re.++ (re.+ (re.* (str.to_re ".."))) (re.++ (re.+ (re.* (str.to_re "/"))) (re.++ (re.* (re.union (str.to_re ":") (str.to_re ";;;"))) (re.++ (re.* (re.* (str.to_re "<<"))) (re.++ (re.+ (re.* (str.to_re "="))) (re.++ (re.union (re.+ (str.to_re ">>")) (re.+ (str.to_re "?"))) (re.++ (re.* (re.* (str.to_re "@@"))) (re.++ (re.+ (re.union (str.to_re "[") (str.to_re "\\"))) (re.++ (re.+ (re.* (str.to_re "]]]"))) (re.++ (re.+ (re.* (str.to_re "^^"))) (re.* (re.* (str.to_re "_")))))))))))))))))))))))))))))))))))))))))))))))))))))))))))
(check-sat)